c 
p cnf 118 193
-11 16 1 0
-13 2 21 0
-21 -10 22 0
-22 -15 1 0
-8 23 24 0
-8 23 -24 0
-8 -23 24 0
-8 -23 -24 0
-15 3 25 0
-25 -8 1 0
-19 1 26 0
-19 1 -26 0
14 27 28 0
14 27 -28 0
14 -27 28 0
14 -27 -28 0
20 29 30 0
20 29 -30 0
20 -29 30 0
20 -29 -30 0
-1 31 32 0
-1 31 -32 0
-1 -31 32 0
-1 -31 -32 0
18 -20 33 0
-33 7 34 0
-34 -8 16 0
-6 -17 35 0
-35 -7 36 0
-36 14 1 0
-20 17 37 0
-37 -19 2 0
-10 3 38 0
-38 -7 39 0
-39 -17 -4 0
4 40 41 0
4 40 -41 0
4 -40 41 0
4 -40 -41 0
10 42 43 0
10 42 -43 0
10 -42 43 0
10 -42 -43 0
1 4 44 0
-44 -10 45 0
-45 -6 -16 0
12 -17 46 0
12 -17 -46 0
19 -1 47 0
-47 14 48 0
-48 -5 -8 0
13 -5 49 0
13 -5 -49 0
5 1 50 0
-50 -18 51 0
-51 -9 6 0
11 -8 52 0
11 -8 -52 0
-19 -14 53 0
-19 -14 -53 0
-2 -19 -13 0
-20 10 -16 0
19 -5 54 0
19 -5 -54 0
-14 15 55 0
-55 11 56 0
-56 -7 1 0
-16 -6 -12 0
11 1 7 0
-9 57 58 0
-9 57 -58 0
-9 -57 58 0
-9 -57 -58 0
-10 19 59 0
-10 19 -59 0
-9 -15 60 0
-60 -19 61 0
-61 -20 11 0
-8 -2 62 0
-8 -2 -62 0
-8 -9 63 0
-63 18 2 0
-11 64 65 0
-11 64 -65 0
-11 -64 65 0
-11 -64 -65 0
-14 -18 6 0
16 -4 66 0
-66 -2 67 0
-67 -7 -14 0
-18 -10 68 0
-18 -10 -68 0
2 -10 69 0
-69 17 -4 0
20 5 70 0
20 5 -70 0
2 18 71 0
-71 -8 72 0
-72 -5 -12 0
-8 4 73 0
-73 14 -10 0
19 12 74 0
-74 2 75 0
-75 -8 18 0
-11 -2 -7 0
11 17 3 0
-9 -3 76 0
-9 -3 -76 0
10 8 4 0
4 1 77 0
4 1 -77 0
9 8 78 0
-78 -11 79 0
-79 -6 -3 0
-14 2 80 0
-80 -15 81 0
-81 -19 20 0
2 -10 82 0
-82 -12 -15 0
12 17 -2 0
6 9 83 0
-83 -16 84 0
-84 15 -10 0
-18 -5 85 0
-85 11 10 0
-1 -4 18 0
-6 -7 13 0
11 86 87 0
11 86 -87 0
11 -86 87 0
11 -86 -87 0
12 1 -10 0
13 17 88 0
13 17 -88 0
-4 -2 89 0
-89 12 8 0
-19 90 91 0
-19 90 -91 0
-19 -90 91 0
-19 -90 -91 0
11 92 93 0
11 92 -93 0
11 -92 93 0
11 -92 -93 0
8 -15 94 0
-94 7 13 0
15 95 96 0
15 95 -96 0
15 -95 96 0
15 -95 -96 0
4 -8 -14 0
4 -10 97 0
-97 17 3 0
-18 7 98 0
-18 7 -98 0
2 -7 99 0
2 -7 -99 0
14 -9 100 0
14 -9 -100 0
-7 -4 101 0
-101 -8 1 0
-19 15 8 0
1 102 103 0
1 102 -103 0
1 -102 103 0
1 -102 -103 0
-6 -9 -7 0
-9 -7 104 0
-104 -15 105 0
-105 18 3 0
5 16 106 0
5 16 -106 0
1 15 107 0
-107 8 108 0
-108 -2 -17 0
20 -6 109 0
-109 -17 -8 0
-7 110 111 0
-7 110 -111 0
-7 -110 111 0
-7 -110 -111 0
-11 -7 112 0
-112 -16 113 0
-113 14 -17 0
-2 114 115 0
-2 114 -115 0
-2 -114 115 0
-2 -114 -115 0
-1 6 116 0
-1 6 -116 0
-4 6 117 0
-117 13 118 0
-118 8 -3 0
